WARNING: for repeatability, setting FPU to use double precision
============================[ Problem Statistics ]=============================
|                                                                             |
|  Number of variables:            50                                         |
|  Number of clauses:             218                                         |
|  Parse time:                   0.00 s                                       |
|                                                                             |
============================[ Search Statistics ]==============================
| Conflicts |          ORIGINAL         |          LEARNT          | Progress |
|           |    Vars  Clauses Literals |    Limit  Clauses Lit/Cl |          |
===============================================================================
===============================================================================
restarts              : 1
conflicts             : 59             (175074 /sec)
decisions             : 70             (0.00 % random) (207715 /sec)
propagations          : 839            (2489614 /sec)
conflict literals     : 221            (18.75 % deleted)
Memory used           : 20.00 MB
CPU time              : 0.000337 s

UNSATISFIABLE
